;; sequence(s): A339488
;; terms: 0 ~9 0 135 576 1575 3456 6615 11520 18711 28800 42471 60480 83655 112896 149175 193536 247095 311040 386631
;; small program: (1 + 2) * loop(((x * x) - y) - y, 2, x)
;; fast program: (1 + 2) * ((2 + x) * ((x - 2) * (x * x)))
(set-logic UFNIA)
(declare-fun f0 (Int Int) Int)
(declare-fun g0 () Int)
(declare-fun h0 (Int) Int)
(declare-fun u0 (Int Int) Int)
(declare-fun v0 (Int) Int)
(declare-fun small (Int) Int)
(declare-fun fast (Int) Int)
(assert (forall ((x Int) (y Int)) (= (f0 x y) (- (- (* x x) y) y))))
(assert (= g0 2))
(assert (forall ((x Int)) (= (h0 x) x)))
(assert (forall ((x Int) (y Int)) (= (u0 x y) (ite (<= x 0) y (f0 (u0 (- x 1) y) x)))))
(assert (forall ((x Int)) (= (v0 x) (u0 g0 (h0 x)))))
(assert (forall ((x Int)) (= (small x) (* (+ 1 2) (v0 x)))))
(assert (forall ((x Int)) (= (fast x) (* (+ 1 2) (* (+ 2 x) (* (- x 2) (* x x)))))))
(assert (exists ((c Int)) (and (>= c 0) (not (= (small c) (fast c))))))
(check-sat)
